NAME 
ROWS
 N  OBJ
 L  R0      
 L  R1      
 E  R2      
 E  R3      
 E  R4      
 E  R5      
 E  R6      
 E  R7      
 E  R8      
 E  R9      
 E  R10     
 E  R11     
 E  R12     
 E  R13     
 E  R14     
 E  R15     
 E  R16     
 E  R17     
 E  R18     
 E  R19     
 E  R20     
 E  R21     
COLUMNS
    MARKER    'MARKER'                 'INTORG'
    I0(10)    OBJ       -13
    I0(10)    R0        120
    I0(10)    R1        108
    I0(10)    R2        6
    I0(10)    R4        7
    I0(10)    R6        18
    I0(10)    R7        16
    I0(10)    R8        17
    I0(10)    R10       11
    I0(10)    R13       15
    I0(10)    R21       1
    I1(12)    OBJ       102
    I1(12)    R0        181
    I1(12)    R1        -124
    I1(12)    R3        16
    I1(12)    R4        14
    I1(12)    R5        16
    I1(12)    R6        19
    I1(12)    R7        8
    I1(12)    R8        18
    I1(12)    R11       15
    I1(12)    R12       8
    I1(12)    R13       -1
    I1(12)    R21       1
    I2(12)    OBJ       -191
    I2(12)    R0        107
    I2(12)    R1        -35
    I2(12)    R2        4
    I2(12)    R3        5
    I2(12)    R4        8
    I2(12)    R5        14
    I2(12)    R7        15
    I2(12)    R8        12
    I2(12)    R9        18
    I2(12)    R11       19
    I2(12)    R13       19
    I2(12)    R21       1
    I3(10)    OBJ       16
    I3(10)    R0        9
    I3(10)    R1        100
    I3(10)    R3        11
    I3(10)    R4        13
    I3(10)    R5        4
    I3(10)    R8        2
    I3(10)    R9        3
    I3(10)    R11       1
    I3(10)    R12       15
    I3(10)    R21       1
    I4(11)    OBJ       192
    I4(11)    R0        -181
    I4(11)    R1        -160
    I4(11)    R2        8
    I4(11)    R4        5
    I4(11)    R5        12
    I4(11)    R6        18
    I4(11)    R7        14
    I4(11)    R8        13
    I4(11)    R10       -1
    I4(11)    R11       6
    I4(11)    R21       1
    I5(11)    OBJ       101
    I5(11)    R0        -181
    I5(11)    R1        -118
    I5(11)    R2        -1
    I5(11)    R3        4
    I5(11)    R4        1
    I5(11)    R7        8
    I5(11)    R9        8
    I5(11)    R10       18
    I5(11)    R12       18
    I5(11)    R13       16
    I5(11)    R21       1
    I6(7)     OBJ       -107
    I6(7)     R0        11
    I6(7)     R1        9
    I6(7)     R4        4
    I6(7)     R5        12
    I6(7)     R12       5
    I6(7)     R13       16
    I6(7)     R21       1
    I7(10)    OBJ       75
    I7(10)    R0        -124
    I7(10)    R1        99
    I7(10)    R2        2
    I7(10)    R5        5
    I7(10)    R6        19
    I7(10)    R8        13
    I7(10)    R9        10
    I7(10)    R10       18
    I7(10)    R11       -1
    I7(10)    R21       1
    I8(11)    OBJ       -97
    I8(11)    R0        -106
    I8(11)    R1        79
    I8(11)    R2        8
    I8(11)    R3        19
    I8(11)    R4        4
    I8(11)    R5        10
    I8(11)    R6        10
    I8(11)    R7        1
    I8(11)    R11       17
    I8(11)    R12       17
    I8(11)    R21       1
    I9(12)    OBJ       86
    I9(12)    R0        19
    I9(12)    R1        23
    I9(12)    R2        4
    I9(12)    R4        15
    I9(12)    R5        3
    I9(12)    R6        13
    I9(12)    R7        4
    I9(12)    R9        5
    I9(12)    R10       12
    I9(12)    R11       16
    I9(12)    R12       2
    I9(12)    R21       1
    I10(12)   OBJ       166
    I10(12)   R0        60
    I10(12)   R1        -186
    I10(12)   R3        14
    I10(12)   R4        17
    I10(12)   R5        15
    I10(12)   R6        -1
    I10(12)   R7        2
    I10(12)   R10       8
    I10(12)   R11       2
    I10(12)   R12       12
    I10(12)   R13       2
    I10(12)   R21       1
    I11(9)    OBJ       111
    I11(9)    R0        -65
    I11(9)    R1        -92
    I11(9)    R2        12
    I11(9)    R4        12
    I11(9)    R9        15
    I11(9)    R10       1
    I11(9)    R12       4
    I11(9)    R13       15
    I11(9)    R21       1
    MARKER    'MARKER'                 'INTEND'
    C12(12)   OBJ       6
    C12(12)   R0        1
    C12(12)   R1        2
    C12(12)   R3        9
    C12(12)   R5        11
    C12(12)   R6        4
    C12(12)   R7        13
    C12(12)   R9        1
    C12(12)   R10       13
    C12(12)   R11       15
    C12(12)   R13       8
    C12(12)   R15       12
    C12(12)   R19       8
    C13(14)   OBJ       -9
    C13(14)   R0        2
    C13(14)   R1        -8
    C13(14)   R2        12
    C13(14)   R4        17
    C13(14)   R7        6
    C13(14)   R8        13
    C13(14)   R11       13
    C13(14)   R13       3
    C13(14)   R15       14
    C13(14)   R16       1
    C13(14)   R17       18
    C13(14)   R18       6
    C13(14)   R19       7
    C13(14)   R20       19
    C14(17)   OBJ       4
    C14(17)   R0        3
    C14(17)   R1        6
    C14(17)   R2        7
    C14(17)   R3        3
    C14(17)   R4        1
    C14(17)   R6        11
    C14(17)   R7        17
    C14(17)   R8        13
    C14(17)   R9        19
    C14(17)   R11       7
    C14(17)   R13       15
    C14(17)   R14       12
    C14(17)   R16       18
    C14(17)   R17       9
    C14(17)   R18       12
    C14(17)   R19       11
    C14(17)   R20       12
    C15(15)   OBJ       4
    C15(15)   R0        -9
    C15(15)   R1        -9
    C15(15)   R2        -1
    C15(15)   R3        5
    C15(15)   R4        12
    C15(15)   R5        11
    C15(15)   R6        9
    C15(15)   R8        2
    C15(15)   R10       12
    C15(15)   R12       16
    C15(15)   R15       13
    C15(15)   R16       19
    C15(15)   R17       11
    C15(15)   R19       18
    C15(15)   R20       -1
    C16(10)   OBJ       4
    C16(10)   R0        -9
    C16(10)   R1        7
    C16(10)   R2        12
    C16(10)   R8        5
    C16(10)   R11       8
    C16(10)   R13       13
    C16(10)   R14       2
    C16(10)   R15       16
    C16(10)   R19       3
    C16(10)   R20       14
    C17(12)   OBJ       -6
    C17(12)   R0        -9
    C17(12)   R1        2
    C17(12)   R2        8
    C17(12)   R3        5
    C17(12)   R4        2
    C17(12)   R5        9
    C17(12)   R9        6
    C17(12)   R11       14
    C17(12)   R12       5
    C17(12)   R14       9
    C17(12)   R15       12
    C17(12)   R16       9
    C18(15)   OBJ       -5
    C18(15)   R0        4
    C18(15)   R1        8
    C18(15)   R2        17
    C18(15)   R3        19
    C18(15)   R5        16
    C18(15)   R6        11
    C18(15)   R8        3
    C18(15)   R9        4
    C18(15)   R12       -1
    C18(15)   R13       6
    C18(15)   R14       13
    C18(15)   R15       8
    C18(15)   R18       5
    C18(15)   R19       17
    C18(15)   R20       2
    C19(18)   OBJ       -2
    C19(18)   R0        1
    C19(18)   R1        2
    C19(18)   R2        6
    C19(18)   R3        17
    C19(18)   R4        4
    C19(18)   R6        17
    C19(18)   R8        10
    C19(18)   R9        19
    C19(18)   R10       13
    C19(18)   R11       12
    C19(18)   R12       5
    C19(18)   R13       9
    C19(18)   R14       16
    C19(18)   R15       18
    C19(18)   R16       16
    C19(18)   R18       12
    C19(18)   R19       7
    C19(18)   R20       5
    C20(1)    R2        1
    C21(1)    R3        1
    C22(1)    R4        1
    C23(1)    R5        1
    C24(1)    R6        1
    C25(1)    R7        1
    C26(1)    R8        1
    C27(1)    R9        1
    C28(1)    R10       1
    C29(1)    R11       1
    C30(1)    R12       1
    C31(1)    R13       1
    C32(1)    R14       1
    C33(1)    R15       1
    C34(1)    R16       1
    C35(1)    R17       1
    C36(1)    R18       1
    C37(1)    R19       1
    C38(1)    R20       1
    C39(1)    R21       1
RHS
    RHS1      R0        2.4266666666666669e+02
    RHS1      R1        -6.8205128205128176e+01
    RHS1      R2        99
    RHS1      R3        74
    RHS1      R4        84
    RHS1      R5        71
    RHS1      R6        91
    RHS1      R7        63
    RHS1      R8        85
    RHS1      R9        62
    RHS1      R10       71
    RHS1      R11       70
    RHS1      R12       94
    RHS1      R13       80
    RHS1      R14       67
    RHS1      R15       54
    RHS1      R16       91
    RHS1      R17       91
    RHS1      R18       59
    RHS1      R19       69
    RHS1      R20       90
    RHS1      R21       4
BOUNDS
 UP BND1      I0(10)    2
 UP BND1      I1(12)    2
 UP BND1      I2(12)    2
 UP BND1      I3(10)    2
 UP BND1      I4(11)    2
 UP BND1      I5(11)    2
 UP BND1      I6(7)     2
 UP BND1      I7(10)    2
 UP BND1      I8(11)    2
 UP BND1      I9(12)    2
 UP BND1      I10(12)   2
 UP BND1      I11(9)    2
ENDATA
